(set-logic QF_LRA)
(declare-fun T1 () Real )
(declare-fun T2 () Real )
(declare-fun T3 () Real )
(declare-fun T4 () Real )
(declare-fun T5 () Real )
(declare-fun T6 () Real )
(declare-fun Z () Real )
(assert ( and 
(or ( <= ( + T1 51 ) T2 ) ( <= ( + T2 19 ) T1 ) )
(or ( <= ( + T1 66 )  ( + T2 19 ) ) ( <= ( + T2 115 )( + T1 51 ) ) )
(or ( <= ( + T1 115 )  ( + T2 115 ) ) ( <= ( + T2 165 )( + T1 66 ) ) )
(or ( <= ( + T1 136 )  ( + T2 165 ) ) ( <= ( + T2 208 )( + T1 115 ) ) )
(or ( <= ( + T1 231 )  ( + T2 208 ) ) ( <= ( + T2 224 )( + T1 136 ) ) )
(or ( <= ( + T1 252 )  ( + T2 224 ) ) ( <= ( + T2 280 )( + T1 231 ) ) )
(or ( <= ( + T1 328 )  ( + T2 280 ) ) ( <= ( + T2 363 )( + T1 252 ) ) )
(or ( <= ( + T1 364 )  ( + T2 363 ) ) ( <= ( + T2 397 )( + T1 328 ) ) )
(or ( <= ( + T1 51 ) T3 ) ( <= ( + T3 62 ) T1 ) )
(or ( <= ( + T1 66 )  ( + T3 62 ) ) ( <= ( + T3 149 )( + T1 51 ) ) )
(or ( <= ( + T1 115 )  ( + T3 149 ) ) ( <= ( + T3 182 )( + T1 66 ) ) )
(or ( <= ( + T1 136 )  ( + T3 182 ) ) ( <= ( + T3 242 )( + T1 115 ) ) )
(or ( <= ( + T1 231 )  ( + T3 242 ) ) ( <= ( + T3 261 )( + T1 136 ) ) )
(or ( <= ( + T1 252 )  ( + T3 261 ) ) ( <= ( + T3 322 )( + T1 231 ) ) )
(or ( <= ( + T1 328 )  ( + T3 322 ) ) ( <= ( + T3 363 )( + T1 252 ) ) )
(or ( <= ( + T1 364 )  ( + T3 363 ) ) ( <= ( + T3 391 )( + T1 328 ) ) )
(or ( <= ( + T1 51 ) T4 ) ( <= ( + T4 50 ) T1 ) )
(or ( <= ( + T1 66 )  ( + T4 50 ) ) ( <= ( + T4 57 )( + T1 51 ) ) )
(or ( <= ( + T1 115 )  ( + T4 57 ) ) ( <= ( + T4 99 )( + T1 66 ) ) )
(or ( <= ( + T1 136 )  ( + T4 99 ) ) ( <= ( + T4 174 )( + T1 115 ) ) )
(or ( <= ( + T1 231 )  ( + T4 174 ) ) ( <= ( + T4 253 )( + T1 136 ) ) )
(or ( <= ( + T1 252 )  ( + T4 253 ) ) ( <= ( + T4 338 )( + T1 231 ) ) )
(or ( <= ( + T1 328 )  ( + T4 338 ) ) ( <= ( + T4 406 )( + T1 252 ) ) )
(or ( <= ( + T1 364 )  ( + T4 406 ) ) ( <= ( + T4 436 )( + T1 328 ) ) )
(or ( <= ( + T1 51 ) T5 ) ( <= ( + T5 51 ) T1 ) )
(or ( <= ( + T1 66 )  ( + T5 51 ) ) ( <= ( + T5 68 )( + T1 51 ) ) )
(or ( <= ( + T1 115 )  ( + T5 68 ) ) ( <= ( + T5 70 )( + T1 66 ) ) )
(or ( <= ( + T1 136 )  ( + T5 70 ) ) ( <= ( + T5 115 )( + T1 115 ) ) )
(or ( <= ( + T1 231 )  ( + T5 115 ) ) ( <= ( + T5 204 )( + T1 136 ) ) )
(or ( <= ( + T1 252 )  ( + T5 204 ) ) ( <= ( + T5 281 )( + T1 231 ) ) )
(or ( <= ( + T1 328 )  ( + T5 281 ) ) ( <= ( + T5 313 )( + T1 252 ) ) )
(or ( <= ( + T1 364 )  ( + T5 313 ) ) ( <= ( + T5 321 )( + T1 328 ) ) )
(or ( <= ( + T1 51 ) T6 ) ( <= ( + T6 24 ) T1 ) )
(or ( <= ( + T1 66 )  ( + T6 24 ) ) ( <= ( + T6 106 )( + T1 51 ) ) )
(or ( <= ( + T1 115 )  ( + T6 106 ) ) ( <= ( + T6 108 )( + T1 66 ) ) )
(or ( <= ( + T1 136 )  ( + T6 108 ) ) ( <= ( + T6 199 )( + T1 115 ) ) )
(or ( <= ( + T1 231 )  ( + T6 199 ) ) ( <= ( + T6 236 )( + T1 136 ) ) )
(or ( <= ( + T1 252 )  ( + T6 236 ) ) ( <= ( + T6 321 )( + T1 231 ) ) )
(or ( <= ( + T1 328 )  ( + T6 321 ) ) ( <= ( + T6 397 )( + T1 252 ) ) )
(or ( <= ( + T1 364 )  ( + T6 397 ) ) ( <= ( + T6 495 )( + T1 328 ) ) )
(or ( <= ( + T2 19 ) T3 ) ( <= ( + T3 62 ) T2 ) )
(or ( <= ( + T2 115 )  ( + T3 62 ) ) ( <= ( + T3 149 )( + T2 19 ) ) )
(or ( <= ( + T2 165 )  ( + T3 149 ) ) ( <= ( + T3 182 )( + T2 115 ) ) )
(or ( <= ( + T2 208 )  ( + T3 182 ) ) ( <= ( + T3 242 )( + T2 165 ) ) )
(or ( <= ( + T2 224 )  ( + T3 242 ) ) ( <= ( + T3 261 )( + T2 208 ) ) )
(or ( <= ( + T2 280 )  ( + T3 261 ) ) ( <= ( + T3 322 )( + T2 224 ) ) )
(or ( <= ( + T2 363 )  ( + T3 322 ) ) ( <= ( + T3 363 )( + T2 280 ) ) )
(or ( <= ( + T2 397 )  ( + T3 363 ) ) ( <= ( + T3 391 )( + T2 363 ) ) )
(or ( <= ( + T2 19 ) T4 ) ( <= ( + T4 50 ) T2 ) )
(or ( <= ( + T2 115 )  ( + T4 50 ) ) ( <= ( + T4 57 )( + T2 19 ) ) )
(or ( <= ( + T2 165 )  ( + T4 57 ) ) ( <= ( + T4 99 )( + T2 115 ) ) )
(or ( <= ( + T2 208 )  ( + T4 99 ) ) ( <= ( + T4 174 )( + T2 165 ) ) )
(or ( <= ( + T2 224 )  ( + T4 174 ) ) ( <= ( + T4 253 )( + T2 208 ) ) )
(or ( <= ( + T2 280 )  ( + T4 253 ) ) ( <= ( + T4 338 )( + T2 224 ) ) )
(or ( <= ( + T2 363 )  ( + T4 338 ) ) ( <= ( + T4 406 )( + T2 280 ) ) )
(or ( <= ( + T2 397 )  ( + T4 406 ) ) ( <= ( + T4 436 )( + T2 363 ) ) )
(or ( <= ( + T2 19 ) T5 ) ( <= ( + T5 51 ) T2 ) )
(or ( <= ( + T2 115 )  ( + T5 51 ) ) ( <= ( + T5 68 )( + T2 19 ) ) )
(or ( <= ( + T2 165 )  ( + T5 68 ) ) ( <= ( + T5 70 )( + T2 115 ) ) )
(or ( <= ( + T2 208 )  ( + T5 70 ) ) ( <= ( + T5 115 )( + T2 165 ) ) )
(or ( <= ( + T2 224 )  ( + T5 115 ) ) ( <= ( + T5 204 )( + T2 208 ) ) )
(or ( <= ( + T2 280 )  ( + T5 204 ) ) ( <= ( + T5 281 )( + T2 224 ) ) )
(or ( <= ( + T2 363 )  ( + T5 281 ) ) ( <= ( + T5 313 )( + T2 280 ) ) )
(or ( <= ( + T2 397 )  ( + T5 313 ) ) ( <= ( + T5 321 )( + T2 363 ) ) )
(or ( <= ( + T2 19 ) T6 ) ( <= ( + T6 24 ) T2 ) )
(or ( <= ( + T2 115 )  ( + T6 24 ) ) ( <= ( + T6 106 )( + T2 19 ) ) )
(or ( <= ( + T2 165 )  ( + T6 106 ) ) ( <= ( + T6 108 )( + T2 115 ) ) )
(or ( <= ( + T2 208 )  ( + T6 108 ) ) ( <= ( + T6 199 )( + T2 165 ) ) )
(or ( <= ( + T2 224 )  ( + T6 199 ) ) ( <= ( + T6 236 )( + T2 208 ) ) )
(or ( <= ( + T2 280 )  ( + T6 236 ) ) ( <= ( + T6 321 )( + T2 224 ) ) )
(or ( <= ( + T2 363 )  ( + T6 321 ) ) ( <= ( + T6 397 )( + T2 280 ) ) )
(or ( <= ( + T2 397 )  ( + T6 397 ) ) ( <= ( + T6 495 )( + T2 363 ) ) )
(or ( <= ( + T3 62 ) T4 ) ( <= ( + T4 50 ) T3 ) )
(or ( <= ( + T3 149 )  ( + T4 50 ) ) ( <= ( + T4 57 )( + T3 62 ) ) )
(or ( <= ( + T3 182 )  ( + T4 57 ) ) ( <= ( + T4 99 )( + T3 149 ) ) )
(or ( <= ( + T3 242 )  ( + T4 99 ) ) ( <= ( + T4 174 )( + T3 182 ) ) )
(or ( <= ( + T3 261 )  ( + T4 174 ) ) ( <= ( + T4 253 )( + T3 242 ) ) )
(or ( <= ( + T3 322 )  ( + T4 253 ) ) ( <= ( + T4 338 )( + T3 261 ) ) )
(or ( <= ( + T3 363 )  ( + T4 338 ) ) ( <= ( + T4 406 )( + T3 322 ) ) )
(or ( <= ( + T3 391 )  ( + T4 406 ) ) ( <= ( + T4 436 )( + T3 363 ) ) )
(or ( <= ( + T3 62 ) T5 ) ( <= ( + T5 51 ) T3 ) )
(or ( <= ( + T3 149 )  ( + T5 51 ) ) ( <= ( + T5 68 )( + T3 62 ) ) )
(or ( <= ( + T3 182 )  ( + T5 68 ) ) ( <= ( + T5 70 )( + T3 149 ) ) )
(or ( <= ( + T3 242 )  ( + T5 70 ) ) ( <= ( + T5 115 )( + T3 182 ) ) )
(or ( <= ( + T3 261 )  ( + T5 115 ) ) ( <= ( + T5 204 )( + T3 242 ) ) )
(or ( <= ( + T3 322 )  ( + T5 204 ) ) ( <= ( + T5 281 )( + T3 261 ) ) )
(or ( <= ( + T3 363 )  ( + T5 281 ) ) ( <= ( + T5 313 )( + T3 322 ) ) )
(or ( <= ( + T3 391 )  ( + T5 313 ) ) ( <= ( + T5 321 )( + T3 363 ) ) )
(or ( <= ( + T3 62 ) T6 ) ( <= ( + T6 24 ) T3 ) )
(or ( <= ( + T3 149 )  ( + T6 24 ) ) ( <= ( + T6 106 )( + T3 62 ) ) )
(or ( <= ( + T3 182 )  ( + T6 106 ) ) ( <= ( + T6 108 )( + T3 149 ) ) )
(or ( <= ( + T3 242 )  ( + T6 108 ) ) ( <= ( + T6 199 )( + T3 182 ) ) )
(or ( <= ( + T3 261 )  ( + T6 199 ) ) ( <= ( + T6 236 )( + T3 242 ) ) )
(or ( <= ( + T3 322 )  ( + T6 236 ) ) ( <= ( + T6 321 )( + T3 261 ) ) )
(or ( <= ( + T3 363 )  ( + T6 321 ) ) ( <= ( + T6 397 )( + T3 322 ) ) )
(or ( <= ( + T3 391 )  ( + T6 397 ) ) ( <= ( + T6 495 )( + T3 363 ) ) )
(or ( <= ( + T4 50 ) T5 ) ( <= ( + T5 51 ) T4 ) )
(or ( <= ( + T4 57 )  ( + T5 51 ) ) ( <= ( + T5 68 )( + T4 50 ) ) )
(or ( <= ( + T4 99 )  ( + T5 68 ) ) ( <= ( + T5 70 )( + T4 57 ) ) )
(or ( <= ( + T4 174 )  ( + T5 70 ) ) ( <= ( + T5 115 )( + T4 99 ) ) )
(or ( <= ( + T4 253 )  ( + T5 115 ) ) ( <= ( + T5 204 )( + T4 174 ) ) )
(or ( <= ( + T4 338 )  ( + T5 204 ) ) ( <= ( + T5 281 )( + T4 253 ) ) )
(or ( <= ( + T4 406 )  ( + T5 281 ) ) ( <= ( + T5 313 )( + T4 338 ) ) )
(or ( <= ( + T4 436 )  ( + T5 313 ) ) ( <= ( + T5 321 )( + T4 406 ) ) )
(or ( <= ( + T4 50 ) T6 ) ( <= ( + T6 24 ) T4 ) )
(or ( <= ( + T4 57 )  ( + T6 24 ) ) ( <= ( + T6 106 )( + T4 50 ) ) )
(or ( <= ( + T4 99 )  ( + T6 106 ) ) ( <= ( + T6 108 )( + T4 57 ) ) )
(or ( <= ( + T4 174 )  ( + T6 108 ) ) ( <= ( + T6 199 )( + T4 99 ) ) )
(or ( <= ( + T4 253 )  ( + T6 199 ) ) ( <= ( + T6 236 )( + T4 174 ) ) )
(or ( <= ( + T4 338 )  ( + T6 236 ) ) ( <= ( + T6 321 )( + T4 253 ) ) )
(or ( <= ( + T4 406 )  ( + T6 321 ) ) ( <= ( + T6 397 )( + T4 338 ) ) )
(or ( <= ( + T4 436 )  ( + T6 397 ) ) ( <= ( + T6 495 )( + T4 406 ) ) )
(or ( <= ( + T5 51 ) T6 ) ( <= ( + T6 24 ) T5 ) )
(or ( <= ( + T5 68 )  ( + T6 24 ) ) ( <= ( + T6 106 )( + T5 51 ) ) )
(or ( <= ( + T5 70 )  ( + T6 106 ) ) ( <= ( + T6 108 )( + T5 68 ) ) )
(or ( <= ( + T5 115 )  ( + T6 108 ) ) ( <= ( + T6 199 )( + T5 70 ) ) )
(or ( <= ( + T5 204 )  ( + T6 199 ) ) ( <= ( + T6 236 )( + T5 115 ) ) )
(or ( <= ( + T5 281 )  ( + T6 236 ) ) ( <= ( + T6 321 )( + T5 204 ) ) )
(or ( <= ( + T5 313 )  ( + T6 321 ) ) ( <= ( + T6 397 )( + T5 281 ) ) )
(or ( <= ( + T5 321 )  ( + T6 397 ) ) ( <= ( + T6 495 )( + T5 313 ) ) )
( <= ( + T1 364 ) Z)
( <= ( + T2 397 ) Z)
( <= ( + T3 391 ) Z)
( <= ( + T4 436 ) Z)
( <= ( + T5 321 ) Z)
( <= ( + T6 495 ) Z)
( >= T1 0 )
( >= T2 0 )
( >= T3 0 )
( >= T4 0 )
( >= T5 0 )
( >= T6 0 )
) )
(minimize Z)
(check-sat)